NAME 
ROWS
 N  OBJ
 L  R0      
 L  R1      
 E  R2      
 E  R3      
 E  R4      
 E  R5      
 E  R6      
 E  R7      
 E  R8      
 E  R9      
 E  R10     
 E  R11     
 E  R12     
 E  R13     
 E  R14     
 E  R15     
 E  R16     
 E  R17     
 E  R18     
 E  R19     
 E  R20     
 E  R21     
COLUMNS
    MARKER    'MARKER'                 'INTORG'
    I0(9)     OBJ       75
    I0(9)     R0        -149
    I0(9)     R1        124
    I0(9)     R2        -1
    I0(9)     R4        13
    I0(9)     R6        16
    I0(9)     R8        3
    I0(9)     R9        16
    I0(9)     R11       15
    I0(9)     R21       1
    I1(8)     OBJ       131
    I1(8)     R0        -149
    I1(8)     R1        50
    I1(8)     R3        7
    I1(8)     R6        1
    I1(8)     R7        -1
    I1(8)     R10       6
    I1(8)     R11       10
    I1(8)     R21       1
    I2(10)    OBJ       -7
    I2(10)    R0        -10
    I2(10)    R1        -24
    I2(10)    R2        18
    I2(10)    R3        13
    I2(10)    R4        18
    I2(10)    R6        11
    I2(10)    R7        18
    I2(10)    R10       12
    I2(10)    R11       11
    I2(10)    R21       1
    I3(9)     OBJ       181
    I3(9)     R0        -196
    I3(9)     R1        -131
    I3(9)     R3        3
    I3(9)     R5        -1
    I3(9)     R6        10
    I3(9)     R8        15
    I3(9)     R9        19
    I3(9)     R10       10
    I3(9)     R21       1
    I4(11)    OBJ       166
    I4(11)    R0        147
    I4(11)    R1        82
    I4(11)    R3        14
    I4(11)    R4        10
    I4(11)    R5        -1
    I4(11)    R6        16
    I4(11)    R7        1
    I4(11)    R8        9
    I4(11)    R9        8
    I4(11)    R11       -1
    I4(11)    R21       1
    I5(11)    OBJ       -31
    I5(11)    R0        -190
    I5(11)    R1        -95
    I5(11)    R4        17
    I5(11)    R5        17
    I5(11)    R6        13
    I5(11)    R7        3
    I5(11)    R8        7
    I5(11)    R9        14
    I5(11)    R10       18
    I5(11)    R11       13
    I5(11)    R21       1
    I6(10)    OBJ       199
    I6(10)    R0        -8
    I6(10)    R1        -198
    I6(10)    R3        13
    I6(10)    R4        5
    I6(10)    R6        16
    I6(10)    R7        11
    I6(10)    R9        19
    I6(10)    R10       11
    I6(10)    R11       16
    I6(10)    R21       1
    I7(9)     OBJ       -53
    I7(9)     R0        -56
    I7(9)     R1        -155
    I7(9)     R2        12
    I7(9)     R4        11
    I7(9)     R5        14
    I7(9)     R8        9
    I7(9)     R9        9
    I7(9)     R10       7
    I7(9)     R21       1
    I8(9)     OBJ       -48
    I8(9)     R0        -70
    I8(9)     R1        -138
    I8(9)     R4        12
    I8(9)     R5        6
    I8(9)     R7        2
    I8(9)     R9        -1
    I8(9)     R10       7
    I8(9)     R11       11
    I8(9)     R21       1
    I9(11)    OBJ       137
    I9(11)    R0        140
    I9(11)    R1        16
    I9(11)    R2        5
    I9(11)    R4        14
    I9(11)    R5        8
    I9(11)    R6        18
    I9(11)    R7        2
    I9(11)    R8        1
    I9(11)    R10       17
    I9(11)    R11       12
    I9(11)    R21       1
    MARKER    'MARKER'                 'INTEND'
    C10(13)   OBJ       -3
    C10(13)   R0        -1
    C10(13)   R1        -5
    C10(13)   R6        10
    C10(13)   R7        16
    C10(13)   R8        9
    C10(13)   R9        6
    C10(13)   R12       17
    C10(13)   R13       3
    C10(13)   R14       5
    C10(13)   R16       10
    C10(13)   R17       10
    C10(13)   R19       -1
    C10(13)   R20       16
    C11(14)   OBJ       7
    C11(14)   R0        2
    C11(14)   R1        1
    C11(14)   R3        17
    C11(14)   R7        5
    C11(14)   R8        6
    C11(14)   R9        18
    C11(14)   R12       13
    C11(14)   R13       19
    C11(14)   R14       19
    C11(14)   R15       -1
    C11(14)   R16       6
    C11(14)   R17       12
    C11(14)   R19       13
    C11(14)   R20       9
    C12(14)   OBJ       -3
    C12(14)   R0        -3
    C12(14)   R1        2
    C12(14)   R2        7
    C12(14)   R3        1
    C12(14)   R4        7
    C12(14)   R5        6
    C12(14)   R6        10
    C12(14)   R7        -1
    C12(14)   R8        2
    C12(14)   R11       5
    C12(14)   R16       2
    C12(14)   R17       9
    C12(14)   R19       14
    C12(14)   R20       18
    C13(13)   OBJ       4
    C13(13)   R0        3
    C13(13)   R1        9
    C13(13)   R2        19
    C13(13)   R4        15
    C13(13)   R5        -1
    C13(13)   R6        3
    C13(13)   R7        15
    C13(13)   R9        2
    C13(13)   R10       13
    C13(13)   R12       15
    C13(13)   R15       15
    C13(13)   R16       12
    C13(13)   R17       13
    C14(16)   OBJ       5
    C14(16)   R0        -2
    C14(16)   R1        -8
    C14(16)   R2        18
    C14(16)   R3        19
    C14(16)   R4        11
    C14(16)   R5        -1
    C14(16)   R8        7
    C14(16)   R9        18
    C14(16)   R10       12
    C14(16)   R12       1
    C14(16)   R13       17
    C14(16)   R14       12
    C14(16)   R15       19
    C14(16)   R16       17
    C14(16)   R17       7
    C14(16)   R18       10
    C15(18)   OBJ       8
    C15(18)   R0        2
    C15(18)   R1        9
    C15(18)   R2        9
    C15(18)   R3        12
    C15(18)   R4        12
    C15(18)   R5        18
    C15(18)   R7        14
    C15(18)   R8        12
    C15(18)   R9        14
    C15(18)   R11       1
    C15(18)   R12       4
    C15(18)   R13       17
    C15(18)   R14       -1
    C15(18)   R15       17
    C15(18)   R16       17
    C15(18)   R17       -1
    C15(18)   R18       5
    C15(18)   R20       -1
    C16(12)   OBJ       8
    C16(12)   R0        -4
    C16(12)   R1        1
    C16(12)   R8        19
    C16(12)   R9        17
    C16(12)   R10       11
    C16(12)   R12       6
    C16(12)   R14       3
    C16(12)   R15       18
    C16(12)   R16       17
    C16(12)   R18       12
    C16(12)   R19       2
    C16(12)   R20       10
    C17(14)   OBJ       -5
    C17(14)   R0        -3
    C17(14)   R1        4
    C17(14)   R2        8
    C17(14)   R3        1
    C17(14)   R6        19
    C17(14)   R7        8
    C17(14)   R8        13
    C17(14)   R10       9
    C17(14)   R13       5
    C17(14)   R14       15
    C17(14)   R16       7
    C17(14)   R18       12
    C17(14)   R19       16
    C17(14)   R20       8
    C18(12)   OBJ       -9
    C18(12)   R0        7
    C18(12)   R1        1
    C18(12)   R3        1
    C18(12)   R4        -1
    C18(12)   R6        15
    C18(12)   R7        7
    C18(12)   R8        4
    C18(12)   R10       8
    C18(12)   R13       5
    C18(12)   R14       19
    C18(12)   R16       -1
    C18(12)   R17       5
    C19(17)   OBJ       6
    C19(17)   R0        5
    C19(17)   R1        -7
    C19(17)   R3        14
    C19(17)   R4        1
    C19(17)   R6        15
    C19(17)   R7        15
    C19(17)   R8        7
    C19(17)   R9        15
    C19(17)   R11       8
    C19(17)   R12       15
    C19(17)   R13       18
    C19(17)   R14       19
    C19(17)   R15       8
    C19(17)   R16       13
    C19(17)   R17       16
    C19(17)   R18       10
    C19(17)   R20       16
    C20(1)    R2        1
    C21(1)    R3        1
    C22(1)    R4        1
    C23(1)    R5        1
    C24(1)    R6        1
    C25(1)    R7        1
    C26(1)    R8        1
    C27(1)    R9        1
    C28(1)    R10       1
    C29(1)    R11       1
    C30(1)    R12       1
    C31(1)    R13       1
    C32(1)    R14       1
    C33(1)    R15       1
    C34(1)    R16       1
    C35(1)    R17       1
    C36(1)    R18       1
    C37(1)    R19       1
    C38(1)    R20       1
    C39(1)    R21       1
RHS
    RHS1      R0        -2.9521578947368414e+02
    RHS1      R1        -3.8008421052631581e+02
    RHS1      R2        58
    RHS1      R3        80
    RHS1      R4        69
    RHS1      R5        61
    RHS1      R6        91
    RHS1      R7        55
    RHS1      R8        72
    RHS1      R9        53
    RHS1      R10       67
    RHS1      R11       94
    RHS1      R12       93
    RHS1      R13       73
    RHS1      R14       73
    RHS1      R15       74
    RHS1      R16       98
    RHS1      R17       85
    RHS1      R18       50
    RHS1      R19       91
    RHS1      R20       76
    RHS1      R21       3
BOUNDS
 UP BND1      I0(9)     1
 UP BND1      I1(8)     1
 UP BND1      I2(10)    1
 UP BND1      I3(9)     1
 UP BND1      I4(11)    1
 UP BND1      I5(11)    1
 UP BND1      I6(10)    1
 UP BND1      I7(9)     1
 UP BND1      I8(9)     1
 UP BND1      I9(11)    1
ENDATA
